language Essence 1.3

letting blksize_delta be function(1 --> 5, 2 --> 5, 3 --> 4, 4 --> 4)
letting maxcars be function(1 --> 10, 2 --> 10, 3 --> 10, 4 --> 10)
letting n_cars be 236
letting n_classes be 124
letting n_options be 4
letting quantity be
        function(1 --> 78, 2 --> 7, 3 --> 19, 4 --> 6, 5 --> 6, 6 --> 1, 7 --> 2, 8 --> 1, 9 --> 1, 10 --> 1, 11 --> 1,
                 12 --> 1, 13 --> 1, 14 --> 1, 15 --> 1, 16 --> 1, 17 --> 1, 18 --> 1, 19 --> 1, 20 --> 1, 21 --> 1,
                 22 --> 1, 23 --> 1, 24 --> 1, 25 --> 1, 26 --> 1, 27 --> 1, 28 --> 1, 29 --> 1, 30 --> 1, 31 --> 1,
                 32 --> 1, 33 --> 1, 34 --> 1, 35 --> 1, 36 --> 1, 37 --> 1, 38 --> 1, 39 --> 1, 40 --> 1, 41 --> 1,
                 42 --> 1, 43 --> 1, 44 --> 1, 45 --> 1, 46 --> 1, 47 --> 1, 48 --> 1, 49 --> 1, 50 --> 1, 51 --> 1,
                 52 --> 1, 53 --> 1, 54 --> 1, 55 --> 1, 56 --> 1, 57 --> 1, 58 --> 1, 59 --> 1, 60 --> 1, 61 --> 1,
                 62 --> 1, 63 --> 1, 64 --> 1, 65 --> 1, 66 --> 1, 67 --> 1, 68 --> 1, 69 --> 1, 70 --> 1, 71 --> 1,
                 72 --> 1, 73 --> 1, 74 --> 1, 75 --> 1, 76 --> 1, 77 --> 1, 78 --> 1, 79 --> 1, 80 --> 1, 81 --> 1,
                 82 --> 1, 83 --> 1, 84 --> 1, 85 --> 1, 86 --> 1, 87 --> 1, 88 --> 1, 89 --> 1, 90 --> 1, 91 --> 1,
                 92 --> 1, 93 --> 1, 94 --> 1, 95 --> 1, 96 --> 1, 97 --> 1, 98 --> 1, 99 --> 1, 100 --> 1, 101 --> 1,
                 102 --> 1, 103 --> 1, 104 --> 1, 105 --> 1, 106 --> 1, 107 --> 1, 108 --> 1, 109 --> 1, 110 --> 1,
                 111 --> 1, 112 --> 1, 113 --> 1, 114 --> 1, 115 --> 1, 116 --> 1, 117 --> 1, 118 --> 1, 119 --> 1,
                 120 --> 1, 121 --> 1, 122 --> 1, 123 --> 1, 124 --> 1)
letting usage be
        relation((1, 2), (2, 1), (2, 3), (3, 3), (3, 4), (4, 2), (4, 4), (5, 1), (5, 2), (5, 3), (5, 4), (6, 2), (6, 3),
                 (7, 3), (7, 4), (8, 1), (8, 2), (9, 2), (10, 1), (11, 3), (11, 4), (12, 3), (13, 1), (13, 4), (14, 2),
                 (14, 3), (14, 4), (15, 2), (15, 3), (15, 4), (16, 2), (17, 3), (18, 2), (19, 1), (19, 3), (20, 1),
                 (20, 2), (20, 3), (20, 4), (21, 2), (22, 3), (23, 1), (24, 1), (24, 3), (25, 2), (25, 4), (26, 2),
                 (26, 4), (27, 3), (27, 4), (28, 1), (28, 2), (29, 1), (29, 2), (30, 4), (31, 2), (31, 3), (32, 3),
                 (32, 4), (33, 1), (33, 2), (33, 3), (34, 3), (34, 4), (35, 2), (35, 4), (36, 2), (37, 4), (38, 1),
                 (38, 3), (39, 1), (39, 3), (40, 3), (41, 1), (41, 4), (42, 2), (42, 3), (42, 4), (43, 1), (43, 4),
                 (44, 1), (45, 4), (46, 3), (47, 4), (48, 3), (49, 1), (49, 2), (50, 4), (51, 3), (51, 4), (52, 3),
                 (52, 4), (53, 2), (53, 3), (53, 4), (54, 1), (54, 2), (54, 4), (55, 1), (55, 3), (55, 4), (56, 1),
                 (56, 3), (56, 4), (57, 1), (57, 2), (57, 3), (58, 2), (58, 4), (59, 1), (60, 4), (61, 2), (62, 2),
                 (63, 4), (64, 2), (64, 3), (64, 4), (65, 4), (66, 2), (66, 3), (66, 4), (67, 2), (68, 4), (69, 2),
                 (69, 3), (70, 1), (70, 4), (71, 1), (71, 2), (71, 4), (72, 2), (72, 3), (72, 4), (73, 3), (73, 4),
                 (74, 1), (74, 2), (74, 4), (75, 3), (75, 4), (76, 2), (76, 4), (77, 1), (77, 4), (78, 4), (79, 1),
                 (79, 2), (79, 4), (80, 3), (80, 4), (81, 1), (81, 4), (82, 2), (82, 3), (82, 4), (83, 1), (83, 4),
                 (84, 1), (84, 4), (85, 1), (85, 2), (85, 4), (86, 3), (86, 4), (87, 2), (87, 4), (88, 2), (88, 4),
                 (89, 4), (90, 1), (90, 2), (90, 4), (91, 1), (91, 4), (92, 2), (92, 4), (93, 1), (93, 2), (93, 3),
                 (93, 4), (94, 3), (94, 4), (95, 2), (95, 4), (96, 2), (96, 4), (97, 2), (97, 4), (98, 4), (99, 1),
                 (99, 4), (100, 1), (100, 4), (101, 1), (101, 2), (101, 3), (101, 4), (102, 4), (103, 1), (103, 2),
                 (103, 3), (103, 4), (104, 1), (104, 2), (104, 3), (104, 4), (105, 2), (105, 3), (105, 4), (106, 2),
                 (106, 4), (107, 1), (107, 3), (107, 4), (108, 2), (108, 3), (108, 4), (109, 1), (109, 4), (110, 3),
                 (110, 4), (111, 1), (111, 4), (112, 4), (113, 4), (114, 4), (115, 3), (115, 4), (116, 1), (116, 4),
                 (117, 3), (117, 4), (118, 1), (118, 2), (118, 4), (119, 3), (119, 4), (120, 4), (121, 4), (122, 3),
                 (122, 4), (123, 2), (123, 3), (123, 4), (124, 1), (124, 2), (124, 3))
$ Visualisation for usage
$   1   2
$   2   1
$   2   3
$   3   3
$   3   4
$   4   2
$   4   4
$   5   1
$   5   2
$   5   3
$   5   4
$   6   2
$   6   3
$   7   3
$   7   4
$   8   1
$   8   2
$   9   2
$  10   1
$  11   3
$  11   4
$  12   3
$  13   1
$  13   4
$  14   2
$  14   3
$  14   4
$  15   2
$  15   3
$  15   4
$  16   2
$  17   3
$  18   2
$  19   1
$  19   3
$  20   1
$  20   2
$  20   3
$  20   4
$  21   2
$  22   3
$  23   1
$  24   1
$  24   3
$  25   2
$  25   4
$  26   2
$  26   4
$  27   3
$  27   4
$  28   1
$  28   2
$  29   1
$  29   2
$  30   4
$  31   2
$  31   3
$  32   3
$  32   4
$  33   1
$  33   2
$  33   3
$  34   3
$  34   4
$  35   2
$  35   4
$  36   2
$  37   4
$  38   1
$  38   3
$  39   1
$  39   3
$  40   3
$  41   1
$  41   4
$  42   2
$  42   3
$  42   4
$  43   1
$  43   4
$  44   1
$  45   4
$  46   3
$  47   4
$  48   3
$  49   1
$  49   2
$  50   4
$  51   3
$  51   4
$  52   3
$  52   4
$  53   2
$  53   3
$  53   4
$  54   1
$  54   2
$  54   4
$  55   1
$  55   3
$  55   4
$  56   1
$  56   3
$  56   4
$  57   1
$  57   2
$  57   3
$  58   2
$  58   4
$  59   1
$  60   4
$  61   2
$  62   2
$  63   4
$  64   2
$  64   3
$  64   4
$  65   4
$  66   2
$  66   3
$  66   4
$  67   2
$  68   4
$  69   2
$  69   3
$  70   1
$  70   4
$  71   1
$  71   2
$  71   4
$  72   2
$  72   3
$  72   4
$  73   3
$  73   4
$  74   1
$  74   2
$  74   4
$  75   3
$  75   4
$  76   2
$  76   4
$  77   1
$  77   4
$  78   4
$  79   1
$  79   2
$  79   4
$  80   3
$  80   4
$  81   1
$  81   4
$  82   2
$  82   3
$  82   4
$  83   1
$  83   4
$  84   1
$  84   4
$  85   1
$  85   2
$  85   4
$  86   3
$  86   4
$  87   2
$  87   4
$  88   2
$  88   4
$  89   4
$  90   1
$  90   2
$  90   4
$  91   1
$  91   4
$  92   2
$  92   4
$  93   1
$  93   2
$  93   3
$  93   4
$  94   3
$  94   4
$  95   2
$  95   4
$  96   2
$  96   4
$  97   2
$  97   4
$  98   4
$  99   1
$  99   4
$ 100   1
$ 100   4
$ 101   1
$ 101   2
$ 101   3
$ 101   4
$ 102   4
$ 103   1
$ 103   2
$ 103   3
$ 103   4
$ 104   1
$ 104   2
$ 104   3
$ 104   4
$ 105   2
$ 105   3
$ 105   4
$ 106   2
$ 106   4
$ 107   1
$ 107   3
$ 107   4
$ 108   2
$ 108   3
$ 108   4
$ 109   1
$ 109   4
$ 110   3
$ 110   4
$ 111   1
$ 111   4
$ 112   4
$ 113   4
$ 114   4
$ 115   3
$ 115   4
$ 116   1
$ 116   4
$ 117   3
$ 117   4
$ 118   1
$ 118   2
$ 118   4
$ 119   3
$ 119   4
$ 120   4
$ 121   4
$ 122   3
$ 122   4
$ 123   2
$ 123   3
$ 123   4
$ 124   1
$ 124   2
$ 124   3

